NAME 
ROWS
 N  OBJ
 L  R0      
 L  R1      
 L  R2      
 L  R3      
 L  R4      
 L  R5      
 L  R6      
 L  R7      
 L  R8      
 L  R9      
COLUMNS
    MARKER    'MARKER'                 'INTORG'
    x[0]      OBJ       6
    x[0]      R0        -5
    x[0]      R1        1
    x[0]      R2        -2
    x[0]      R3        -8
    x[0]      R4        -10
    x[0]      R5        -1
    x[0]      R9        -1
    x[1]      OBJ       -10
    x[1]      R0        1
    x[1]      R2        -3
    x[1]      R3        -3
    x[1]      R4        -9
    x[1]      R5        -1
    x[1]      R7        1
    x[1]      R9        1
    x[2]      OBJ       8
    x[2]      R0        2
    x[2]      R1        4
    x[2]      R2        -7
    x[2]      R3        -2
    x[2]      R4        7
    x[2]      R6        1
    x[2]      R7        -1
    x[2]      R8        -1
    x[2]      R9        -1
    x[3]      R0        -2
    x[3]      R1        8
    x[3]      R2        -4
    x[3]      R3        -1
    x[3]      R4        3
    x[3]      R5        -1
    x[4]      OBJ       -2
    x[4]      R0        -1
    x[4]      R1        -6
    x[4]      R2        7
    x[4]      R3        -7
    x[4]      R4        -7
    x[4]      R5        -1
    x[4]      R7        1
    x[4]      R8        1
    x[5]      OBJ       3
    x[5]      R0        1
    x[5]      R1        -1
    x[5]      R2        -7
    x[5]      R3        -3
    x[5]      R4        -10
    x[5]      R5        1
    x[5]      R7        -1
    x[5]      R8        1
    x[5]      R9        1
    x[6]      OBJ       -7
    x[6]      R0        -5
    x[6]      R1        7
    x[6]      R2        -6
    x[6]      R3        -6
    x[6]      R4        3
    x[6]      R9        -1
    x[7]      OBJ       -10
    x[7]      R0        5
    x[7]      R1        -10
    x[7]      R2        7
    x[7]      R3        -5
    x[7]      R4        -4
    x[7]      R8        -1
    x[7]      R9        1
    x[8]      OBJ       -2
    x[8]      R0        -10
    x[8]      R1        3
    x[8]      R2        1
    x[8]      R3        9
    x[8]      R4        10
    x[8]      R5        -1
    x[9]      OBJ       10
    x[9]      R0        6
    x[9]      R1        -1
    x[9]      R2        2
    x[9]      R3        -4
    x[9]      R4        -4
    x[9]      R5        -1
    x[9]      R6        -1
    x[9]      R7        1
    x[9]      R8        1
    y[0]      OBJ       -8
    y[0]      R0        -9
    y[0]      R1        -1
    y[0]      R2        10
    y[0]      R3        -2
    y[0]      R4        -8
    y[0]      R5        -77
    y[0]      R6        82
    y[0]      R7        -16
    y[0]      R8        99
    y[0]      R9        -54
    y[1]      OBJ       -1
    y[1]      R0        2
    y[1]      R1        -3
    y[1]      R2        6
    y[1]      R3        -10
    y[1]      R4        2
    y[1]      R5        24
    y[1]      R6        -4
    y[1]      R7        -90
    y[1]      R8        -47
    y[1]      R9        28
    y[2]      OBJ       -10
    y[2]      R0        -3
    y[2]      R1        -9
    y[2]      R2        3
    y[2]      R3        -8
    y[2]      R4        1
    y[2]      R5        -19
    y[2]      R6        -18
    y[2]      R7        -4
    y[2]      R8        -31
    y[2]      R9        57
    y[3]      OBJ       -7
    y[3]      R0        3
    y[3]      R1        -10
    y[3]      R2        9
    y[3]      R4        -3
    y[3]      R5        35
    y[3]      R6        98
    y[3]      R7        83
    y[3]      R8        64
    y[3]      R9        -37
    y[4]      OBJ       -2
    y[4]      R0        -4
    y[4]      R1        7
    y[4]      R2        -1
    y[4]      R3        5
    y[4]      R4        3
    y[4]      R5        21
    y[4]      R6        94
    y[4]      R7        -39
    y[4]      R8        1
    y[4]      R9        -25
    y[5]      OBJ       -9
    y[5]      R0        8
    y[5]      R1        -2
    y[5]      R2        8
    y[5]      R3        5
    y[5]      R4        -2
    y[5]      R5        52
    y[5]      R6        -29
    y[5]      R7        -44
    y[5]      R8        -79
    y[5]      R9        -65
    y[6]      OBJ       -6
    y[6]      R0        10
    y[6]      R1        3
    y[6]      R2        5
    y[6]      R3        -3
    y[6]      R4        1
    y[6]      R5        48
    y[6]      R6        76
    y[6]      R7        49
    y[6]      R8        -60
    y[6]      R9        81
    y[7]      OBJ       -7
    y[7]      R0        -5
    y[7]      R1        9
    y[7]      R2        -10
    y[7]      R3        9
    y[7]      R4        2
    y[7]      R5        60
    y[7]      R6        -46
    y[7]      R7        -4
    y[7]      R8        -23
    y[7]      R9        -67
    y[8]      OBJ       -7
    y[8]      R0        8
    y[8]      R1        5
    y[8]      R2        -6
    y[8]      R4        1
    y[8]      R5        40
    y[8]      R6        -85
    y[8]      R7        -75
    y[8]      R8        77
    y[8]      R9        30
    y[9]      OBJ       -4
    y[9]      R0        10
    y[9]      R2        5
    y[9]      R3        4
    y[9]      R4        10
    y[9]      R5        93
    y[9]      R6        33
    y[9]      R7        42
    y[9]      R8        13
    y[9]      R9        -17
    MARKER    'MARKER'                 'INTEND'
RHS
    RHS1      R0        3
    RHS1      R1        1
    RHS1      R2        4.25
    RHS1      R3        -7.5
    RHS1      R4        -3.5
    RHS1      R5        68
    RHS1      R6        50
    RHS1      R7        -24
    RHS1      R8        4
    RHS1      R9        -17
BOUNDS
 BV BND1      x[0]    
 BV BND1      x[1]    
 BV BND1      x[2]    
 BV BND1      x[3]    
 BV BND1      x[4]    
 BV BND1      x[5]    
 BV BND1      x[6]    
 BV BND1      x[7]    
 BV BND1      x[8]    
 BV BND1      x[9]    
 BV BND1      y[0]    
 BV BND1      y[1]    
 BV BND1      y[2]    
 BV BND1      y[3]    
 BV BND1      y[4]    
 BV BND1      y[5]    
 BV BND1      y[6]    
 BV BND1      y[7]    
 BV BND1      y[8]    
 BV BND1      y[9]    
ENDATA
